0000000000000000
0000000000000000
0011100000011100
0011100000011100
0011100000011100
0001110000111000
0000111001110000
0000001111000000
0000001111000000
0000011001100000
0001110000111000
0011100000011100
0111000000001110
0111000000001110
0111000000001110
0000000000000000